
Gurobi 10.0.0 (win64) logging started Thu May 30 15:25:56 2024

Set parameter LogFile to value "C:\Users\ealvarezq\Documents\GitHub\Comillas\Models\JointResearch\05. Models\06.Benchmarking\L.Cont_Investments_per_hour\9n_mod1_ByStages_nc50/openStarNet_9n_mod1_ByStages_nc50.log"
Set parameter Method to value 2
Set parameter MIPFocus to value 1
Set parameter Presolve to value 2
Set parameter RINS to value 100
Set parameter MIPGap to value 0.01
Set parameter Threads to value 9
Set parameter TimeLimit to value 259200
Set parameter IterationLimit to value 760000000
Gurobi Optimizer version 10.0.0 build v10.0.0rc2 (win64)

CPU model: Intel(R) Core(TM) i7-8700 CPU @ 3.20GHz, instruction set [SSE2|AVX|AVX2]
Thread count: 6 physical cores, 12 logical processors, using up to 9 threads

Optimize a model with 13103 rows, 6982 columns and 39658 nonzeros
Model fingerprint: 0x81a5b8ac
Variable types: 6946 continuous, 36 integer (36 binary)
Coefficient statistics:
  Matrix range     [6e-04, 4e+03]
  Objective range  [1e+00, 1e+00]
  Bounds range     [2e-04, 2e+00]
  RHS range        [2e-04, 1e+00]
Presolve removed 4453 rows and 2354 columns
Presolve time: 0.06s
Presolved: 8650 rows, 4628 columns, 29592 nonzeros
Variable types: 4592 continuous, 36 integer (36 binary)
Found heuristic solution: objective 4570.6075616
Root relaxation presolved: 8650 rows, 4628 columns, 29592 nonzeros

Root barrier log...

Ordering time: 0.00s

Barrier statistics:
 Dense cols : 36
 AA' NZ     : 1.025e+05
 Factor NZ  : 2.029e+05 (roughly 7 MB of memory)
 Factor Ops : 6.756e+06 (less than 1 second per iteration)
 Threads    : 9

                  Objective                Residual
Iter       Primal          Dual         Primal    Dual     Compl     Time
   0   4.74847594e+05 -6.11857933e+07  7.14e+00 6.86e+02  1.39e+04     0s
   1   7.78093776e+04 -2.47609579e+07  9.82e-01 2.11e-09  2.13e+03     0s
   2   1.72323084e+04 -5.93838463e+06  3.43e-02 7.00e-09  3.58e+02     0s
   3   7.96504221e+03 -1.50326029e+05  4.09e-14 1.78e-10  9.28e+00     0s
   4   1.60526040e+03 -3.94554723e+04  3.55e-14 4.48e-11  2.41e+00     0s
   5   9.79282039e+02 -9.35908623e+03  2.75e-14 8.82e-12  6.06e-01     0s
   6   5.59219249e+02 -2.15116977e+03  1.01e-13 2.03e-12  1.59e-01     0s
   7   2.82962297e+02 -4.71365797e+02  7.55e-14 3.66e-12  4.42e-02     0s
   8   1.62365631e+02 -8.87888799e+01  1.89e-13 1.82e-12  1.47e-02     0s
   9   1.01910927e+02  3.50254045e+01  2.88e-13 2.15e-12  3.92e-03     0s
  10   9.11913117e+01  5.74649163e+01  4.44e-13 1.03e-12  1.98e-03     0s
  11   8.54087179e+01  6.70877292e+01  1.53e-12 2.72e-12  1.07e-03     0s
  12   8.36949186e+01  7.08439220e+01  3.31e-12 2.25e-12  7.53e-04     0s
  13   8.24551998e+01  7.31955085e+01  3.37e-12 2.70e-12  5.43e-04     0s
  14   8.18107273e+01  7.40767308e+01  2.66e-12 2.39e-12  4.53e-04     0s
  15   8.06305244e+01  7.79105133e+01  2.33e-12 2.69e-12  1.59e-04     0s
  16   8.01030959e+01  7.85797958e+01  2.14e-11 2.12e-12  8.93e-05     0s
  17   7.96895601e+01  7.92064253e+01  9.93e-12 2.27e-12  2.83e-05     0s
  18   7.96224961e+01  7.95189968e+01  4.46e-09 2.85e-12  6.07e-06     0s
  19   7.95966127e+01  7.95810558e+01  1.26e-09 2.26e-12  9.12e-07     0s
  20   7.95940152e+01  7.95939363e+01  2.27e-11 2.67e-12  4.63e-09     0s
  21   7.95939962e+01  7.95939961e+01  6.11e-11 3.29e-12  4.63e-12     0s

Barrier solved model in 21 iterations and 0.21 seconds (0.22 work units)
Optimal objective 7.95939962e+01


Root relaxation: objective 7.959400e+01, 949 iterations, 0.15 seconds (0.12 work units)

    Nodes    |    Current Node    |     Objective Bounds      |     Work
 Expl Unexpl |  Obj  Depth IntInf | Incumbent    BestBd   Gap | It/Node Time

     0     0   79.59400    0    5 4570.60756   79.59400  98.3%     -    0s
H    0     0                      83.1076098   79.59400  4.23%     -    0s
     0     0   82.09801    0    1   83.10761   82.09801  1.21%     -    0s
     0     0   82.09801    0    3   83.10761   82.09801  1.21%     -    0s
H    0     0                      83.0975798   82.09801  1.20%     -    0s

Cutting planes:
  Cover: 1
  MIR: 15

Explored 1 nodes (1260 simplex iterations) in 0.51 seconds (0.38 work units)
Thread count was 9 (of 12 available processors)

Solution count 3: 83.0976 83.1076 4570.61 

Optimal solution found (tolerance 1.00e-02)
Best objective 8.309757977999e+01, best bound 8.233753104552e+01, gap 0.9146%

Gurobi 10.0.0 (win64) logging started Thu May 30 15:25:59 2024

Set parameter LogFile to value "C:\Users\ealvarezq\Documents\GitHub\Comillas\Models\JointResearch\05. Models\06.Benchmarking\L.Cont_Investments_per_hour\9n_mod1_ByStages_nc50/openStarNet_9n_mod1_ByStages_nc50.log"
Set parameter Method to value 2
Set parameter MIPFocus to value 1
Set parameter Presolve to value 2
Set parameter RINS to value 100
Set parameter MIPGap to value 0.01
Set parameter Threads to value 9
Set parameter TimeLimit to value 259200
Set parameter IterationLimit to value 760000000
Gurobi Optimizer version 10.0.0 build v10.0.0rc2 (win64)

CPU model: Intel(R) Core(TM) i7-8700 CPU @ 3.20GHz, instruction set [SSE2|AVX|AVX2]
Thread count: 6 physical cores, 12 logical processors, using up to 9 threads

Optimize a model with 13103 rows, 6946 columns and 32422 nonzeros
Model fingerprint: 0xd3628ad2
Coefficient statistics:
  Matrix range     [6e-04, 4e+03]
  Objective range  [1e+00, 1e+00]
  Bounds range     [2e-04, 2e+00]
  RHS range        [2e-04, 2e+01]
Presolve removed 11948 rows and 4608 columns
Presolve time: 0.01s
Presolved: 1155 rows, 2388 columns, 5152 nonzeros

Ordering time: 0.00s

Barrier statistics:
 AA' NZ     : 2.528e+03
 Factor NZ  : 1.154e+04 (roughly 2 MB of memory)
 Factor Ops : 1.520e+05 (less than 1 second per iteration)
 Threads    : 1

                  Objective                Residual
Iter       Primal          Dual         Primal    Dual     Compl     Time
   0   6.32122706e+05 -3.55340112e+07  7.64e+00 2.39e+02  3.86e+04     0s
   1   6.82785905e+04 -1.93479183e+07  6.34e-01 3.27e-11  5.49e+03     0s
   2   2.27070466e+04 -4.48210441e+06  6.11e-02 4.00e-11  9.10e+02     0s
   3   1.18828236e+04 -2.34899120e+05  1.45e-03 4.37e-11  4.57e+01     0s
   4   3.29368546e+03 -2.07466778e+04  7.44e-05 3.27e-11  4.42e+00     0s
   5   1.31207281e+03 -7.70406058e+03  1.46e-05 1.64e-11  1.66e+00     0s
   6   7.31801048e+02 -3.25486086e+03  4.20e-06 1.00e-11  7.34e-01     0s
   7   3.44215241e+02 -1.05640135e+03  4.33e-07 6.46e-12  2.58e-01     0s
   8   2.17522601e+02 -3.73218776e+02  1.41e-07 2.62e-12  1.09e-01     0s
   9   1.38429164e+02 -8.60340496e+01  3.64e-08 4.02e-12  4.13e-02     0s
  10   1.05293341e+02  4.59665682e+01  9.63e-09 5.36e-12  1.09e-02     0s
  11   9.11074629e+01  6.96801834e+01  2.43e-09 6.01e-12  3.94e-03     0s
  12   8.61225895e+01  7.88452290e+01  8.14e-10 8.86e-12  1.34e-03     0s
  13   8.45621871e+01  8.12613952e+01  3.71e-10 2.72e-12  6.07e-04     0s
  14   8.37077773e+01  8.23409389e+01  1.46e-10 1.18e-11  2.51e-04     0s
  15   8.32656186e+01  8.28713708e+01  3.68e-11 3.06e-12  7.25e-05     0s
  16   8.31505721e+01  8.30335281e+01  1.10e-11 9.47e-12  2.15e-05     0s
  17   8.31051632e+01  8.30928162e+01  1.26e-12 4.33e-12  2.27e-06     0s
  18   8.30982523e+01  8.30968226e+01  1.10e-13 4.34e-12  2.63e-07     0s
  19   8.30975883e+01  8.30975729e+01  4.33e-14 9.51e-12  2.84e-09     0s
  20   8.30975798e+01  8.30975798e+01  2.31e-13 2.71e-12  2.19e-13     0s

Barrier solved model in 20 iterations and 0.03 seconds (0.03 work units)
Optimal objective 8.30975798e+01

Crossover log...

     520 DPushes remaining with DInf 0.0000000e+00                 0s
       0 DPushes remaining with DInf 0.0000000e+00                 0s

       2 PPushes remaining with PInf 0.0000000e+00                 0s
       0 PPushes remaining with PInf 0.0000000e+00                 0s

  Push phase complete: Pinf 0.0000000e+00, Dinf 2.8182811e-13      0s

Iteration    Objective       Primal Inf.    Dual Inf.      Time
      38    8.3097580e+01   0.000000e+00   0.000000e+00      0s

Solved in 38 iterations and 0.04 seconds (0.03 work units)
Optimal objective  8.309757978e+01
